3 40 1 10
20 13 4 17 13 10 12 12 3 2 14 2 12 3 9 15 20 9 3 13 13 15 6 11 10 7 8 16 14 17 18 7 2 2 10 11 15 9 6 8 
5.38 14.09 15.11 6.26 1.77 8.56 9.39 7.97 11.22 1.86 10.61 10.51 1.05 14.35 15.34 8.92 0.37 10.5 0.51 1.88 8.89 15.15 1.2 10.95 5.14 2.92 12.68 11.63 8.96 9.17 9.29 14.07 14.68 12.55 1.68 12.5 15.82 10.17 10.27 11.68 
8 8 8 8 8 8 8 8 8 8 8 8 8 8 8 8 8 8 8 8 8 8 8 8 8 8 8 8 8 8 8 8 8 8 8 8 8 8 8 8 
11 12.24 0.26 0.6 13.94 1.64 6.31 4.37 6.37 1.42 10.18 12.47 6.36 4.34 15.04 13.92 14.67 12.72 5.97 14.84 3.62 0.17 6.51 13.09 15.88 2.44 4.88 7.52 7.93 3.13 3.18 11.99 7.73 15.89 15.24 15.77 6.43 9.45 0.21 5.57 
1 1 1 1 1 1 1 1 1 1 1 1 1 1 1 1 1 1 1 1 1 1 1 1 1 1 1 1 1 1 1 1 1 1 1 1 1 1 1 1 
1 1 1 1 1 1 1 1 1 1 1 1 1 1 1 1 1 1 1 1 1 1 1 1 1 1 1 1 1 1 1 1 1 1 1 1 1 1 1 1 
1 1 1 1 1 1 1 1 1 1 1 1 1 1 1 1 1 1 1 1 1 1 1 1 1 1 1 1 1 1 1 1 1 1 1 1 1 1 1 1 
0.01 0.01 0.01 0.01 0.01 0.01 0.01 0.01 0.01 0.01 0.01 0.01 0.01 0.01 0.01 0.01 0.01 0.01 0.01 0.01 0.01 0.01 0.01 0.01 0.01 0.01 0.01 0.01 0.01 0.01 0.01 0.01 0.01 0.01 0.01 0.01 0.01 0.01 0.01 0.01 
0.02 0.02 0.02 0.02 0.02 0.02 0.02 0.02 0.02 0.02 0.02 0.02 0.02 0.02 0.02 0.02 0.02 0.02 0.02 0.02 0.02 0.02 0.02 0.02 0.02 0.02 0.02 0.02 0.02 0.02 0.02 0.02 0.02 0.02 0.02 0.02 0.02 0.02 0.02 0.02 
1 1 1 1 1 1 1 1 1 1 1 1 1 1 1 1 1 1 1 1 1 1 1 1 1 1 1 1 1 1 1 1 1 1 1 1 1 1 1 1 
